NiO                                     
8.32
	1.0	0.0	0.0
	0.0	1.0	0.0
	0.0	1.0	0.0
   Ni	O
   32	32
Direct
     0.000000000         0.000000000         0.000000000
     0.250000000         0.250000000         0.500000000
     0.500000000         0.500000000         0.000000000
     0.750000000         0.750000000         0.500000000
     0.250000000         0.500000000         0.250000000
     0.500000000         0.750000000         0.750000000
     0.750000000         0.000000000         0.250000000
     0.000000000         0.250000000         0.750000000
     0.500000000         0.000000000         0.500000000
     0.750000000         0.250000000         0.000000000
     0.000000000         0.500000000         0.500000000
     0.250000000         0.750000000         0.000000000
     0.750000000         0.500000000         0.750000000
     0.000000000         0.750000000         0.250000000
     0.250000000         0.000000000         0.750000000
     0.500000000         0.250000000         0.250000000
     0.500000000         0.500000000         0.500000000
     0.750000000         0.750000000         0.000000000
     0.000000000         0.000000000         0.500000000
     0.250000000         0.250000000         0.000000000
     0.750000000         0.000000000         0.750000000
     0.000000000         0.250000000         0.250000000
     0.250000000         0.500000000         0.750000000
     0.500000000         0.750000000         0.250000000
     0.000000000         0.500000000         0.000000000
     0.250000000         0.750000000         0.500000000
     0.500000000         0.000000000         0.000000000
     0.750000000         0.250000000         0.500000000
     0.250000000         0.000000000         0.250000000
     0.500000000         0.250000000         0.750000000
     0.750000000         0.500000000         0.250000000
     0.000000000         0.750000000         0.750000000
     0.250000000         0.250000000         0.250000000
     0.500000000         0.500000000         0.750000000
     0.750000000         0.750000000         0.250000000
     0.000000000         0.000000000         0.750000000
     0.500000000         0.750000000         0.500000000
     0.750000000         0.000000000         0.000000000
     0.000000000         0.250000000         0.500000000
     0.250000000         0.500000000         0.000000000
     0.750000000         0.250000000         0.750000000
     0.000000000         0.500000000         0.250000000
     0.250000000         0.750000000         0.750000000
     0.500000000         0.000000000         0.250000000
     0.000000000         0.750000000         0.000000000
     0.250000000         0.000000000         0.500000000
     0.500000000         0.250000000         0.000000000
     0.750000000         0.500000000         0.500000000
     0.750000000         0.750000000         0.750000000
     0.000000000         0.000000000         0.250000000
     0.250000000         0.250000000         0.750000000
     0.500000000         0.500000000         0.250000000
     0.000000000         0.250000000         0.000000000
     0.250000000         0.500000000         0.500000000
     0.500000000         0.750000000         0.000000000
     0.750000000         0.000000000         0.500000000
     0.250000000         0.750000000         0.250000000
     0.500000000         0.000000000         0.750000000
     0.750000000         0.250000000         0.250000000
     0.000000000         0.500000000         0.750000000
     0.500000000         0.250000000         0.500000000
     0.750000000         0.500000000         0.000000000
     0.000000000         0.750000000         0.500000000
     0.250000000         0.000000000         0.000000000
