AFM  NiO
2
        4.17         0.0000000000         0.0000000000
        0.00000         4.17         0.0000000000
        0.00000         0.00000         4.17
   Ni   O
   32   32
Direct
     0.000000000         0.000000000         0.000000000
     0.250000000         0.250000000         0.500000000
     0.500000000         0.500000000         0.000000000
     0.750000000         0.750000000         0.500000000
     0.250000000         0.500000000         0.250000000
     0.500000000         0.750000000         0.750000000
     0.750000000         0.000000000         0.250000000
     0.000000000         0.250000000         0.750000000
     0.500000000         0.000000000         0.500000000
     0.750000000         0.250000000         0.000000000
     0.000000000         0.500000000         0.500000000
     0.250000000         0.750000000         0.000000000
     0.750000000         0.500000000         0.750000000
     0.000000000         0.750000000         0.250000000
     0.250000000         0.000000000         0.750000000
     0.500000000         0.250000000         0.250000000
     0.500000000         0.500000000         0.500000000
     0.750000000         0.750000000         0.000000000
     0.000000000         0.000000000         0.500000000
     0.250000000         0.250000000         0.000000000
     0.750000000         0.000000000         0.750000000
     0.000000000         0.250000000         0.250000000
     0.250000000         0.500000000         0.750000000
     0.500000000         0.750000000         0.250000000
     0.000000000         0.500000000         0.000000000
     0.250000000         0.750000000         0.500000000
     0.500000000         0.000000000         0.000000000
     0.750000000         0.250000000         0.500000000
     0.250000000         0.000000000         0.250000000
     0.500000000         0.250000000         0.750000000
     0.750000000         0.500000000         0.250000000
     0.000000000         0.750000000         0.750000000
     0.250000000         0.250000000         0.250000000
     0.500000000         0.500000000         0.750000000
     0.750000000         0.750000000         0.250000000
     0.000000000         0.000000000         0.750000000
     0.500000000         0.750000000         0.500000000
     0.750000000         0.000000000         0.000000000
     0.000000000         0.250000000         0.500000000
     0.250000000         0.500000000         0.000000000
     0.750000000         0.250000000         0.750000000
     0.000000000         0.500000000         0.250000000
     0.250000000         0.750000000         0.750000000
     0.500000000         0.000000000         0.250000000
     0.000000000         0.750000000         0.000000000
     0.250000000         0.000000000         0.500000000
     0.500000000         0.250000000         0.000000000
     0.750000000         0.500000000         0.500000000
     0.750000000         0.750000000         0.750000000
     0.000000000         0.000000000         0.250000000
     0.250000000         0.250000000         0.750000000
     0.500000000         0.500000000         0.250000000
     0.000000000         0.250000000         0.000000000
     0.250000000         0.500000000         0.500000000
     0.500000000         0.750000000         0.000000000
     0.750000000         0.000000000         0.500000000
     0.250000000         0.750000000         0.250000000
     0.500000000         0.000000000         0.750000000
     0.750000000         0.250000000         0.250000000
     0.000000000         0.500000000         0.750000000
     0.500000000         0.250000000         0.500000000
     0.750000000         0.500000000         0.000000000
     0.000000000         0.750000000         0.500000000
     0.250000000         0.000000000         0.000000000
