System = NiO
ISTART = 0
ENCUT = 400
ISMEAR = 0
SIGMA = 0.001
EDIFF = 1E-8
