NiO:
4.176
0.5 0.5 0.0
0.0 0.5 0.5
0.5 0.0 0.5
1 1
Direct
0.0 0.0 0.0
0.5 0.5 0.5
