N1 O1
1.0
3.50 0 0
1.75000000000000000000 3.03108891324553526366 0
1.75000000000000000000 1.01036297108184508788 2.85773803324704111457
Ni    O
1    1
Direct
0.000000000         0.000000000         0.000000000
0.500000000         0.500000000         0.500000000
