N1 O1
1.0
2.95 0 0
1.47500000000000000000 2.55477494116409400794 0
1.47500000000000000000 .85159164705469800264 2.40866491373679179656
Ni    O
1    1
Direct
0.000000000         0.000000000         0.000000000
0.500000000         0.500000000         0.500000000
